(set-logic QF_S)
(declare-fun _var_0xINPUT_175581_() String)
(declare-fun __woorpje_diseq_pref0_() String)
(declare-fun __woorpje_diseq_suf_l0_() String)
(declare-fun __woorpje_diseq_suf_r0_() String)
(declare-fun __woorpje_diseq_pref1_() String)
(declare-fun __woorpje_diseq_suf_l1_() String)
(declare-fun __woorpje_diseq_suf_r1_() String)
(declare-fun __woorpje_diseq_pref2_() String)
(declare-fun __woorpje_diseq_suf_l2_() String)
(declare-fun __woorpje_diseq_suf_r2_() String)
(assert (=(str.++  "AA1ND6MEXd" "")(str.++ __woorpje_diseq_pref0_  "A" __woorpje_diseq_suf_l0_  "")) )
(assert (=(str.++ _var_0xINPUT_175581_  "")(str.++ __woorpje_diseq_pref0_  "6" __woorpje_diseq_suf_r0_  "")) )
(assert (=(str.++  "6JX7G3VKFq" "")(str.++ _var_0xINPUT_175581_  "")) )
(assert  (<= (* (str.len _var_0xINPUT_175581_)(- 1)) (- 1)) )
(check-sat)
